 $contrl inttyp=rotaxis $end
 $SYSTEM MWORDS=1600 $END
 $SYSTEM MEMDDI=0 $END
 $CONTRL nprint=-5 SCFTYP=RHF MULT=1 ICHARG=0 ISPHER=1 $END
 $CONTRL RUNTYP=ENERGY $END
 $SCF DIRSCF=.T. FDIFF=.F. $END
 $BASIS GBASIS=N31 NGAUSS=6 $END
 $DATA
 0020w_631G.inp basis 631G
 C1 
  O  8.0            2.168321       -0.816453       -1.238246
  H  1.0            1.737652       -0.543917       -2.032681
  H  1.0            2.689561       -1.572105       -1.457738
  O  8.0            0.884949       -2.381363       -1.477956
  H  1.0            0.395752       -1.669593       -1.097235
  H  1.0            0.845015       -2.267805       -2.414112
  O  8.0            1.779312       -2.046515        0.254498
  H  1.0            1.257329       -1.374368        0.662703
  H  1.0            2.231395       -2.498217        0.949095
  O  8.0           -1.612530        0.785341       -2.469572
  H  1.0           -2.512897        0.875223       -2.200987
  H  1.0           -1.578634        0.053166       -3.064256
  O  8.0           -0.595610        2.983683        1.488388
  H  1.0           -1.326976        3.106310        0.904484
  H  1.0            0.145216        2.753640        0.950675
  O  8.0            0.764818        1.105290       -3.132758
  H  1.0            0.049767        1.708022       -3.005108
  H  1.0            0.383190        0.246660       -3.222154
  O  8.0           -1.659414        1.012138        1.489256
  H  1.0           -1.275728        1.149542        0.637914
  H  1.0           -2.412408        1.578781        1.542111
  O  8.0            0.096163        1.339113        2.342800
  H  1.0            0.575550        0.946863        1.630616
  H  1.0            0.726165        1.537810        3.016962
  O  8.0            0.834451        2.953860       -0.894209
  H  1.0            1.160759        2.763887       -1.759260
  H  1.0           -0.052676        3.258407       -0.999729
  O  8.0            0.450621       -2.956733        1.608632
  H  1.0           -0.425788       -2.812977        1.928194
  H  1.0            0.366900       -3.336810        0.748743
  O  8.0            0.069397       -1.132163        2.913919
  H  1.0            0.355113       -0.361825        3.378486
  H  1.0           -0.087135       -0.868206        2.021337
  O  8.0           -0.081596        0.253552       -1.055088
  H  1.0            0.175411        0.064208       -0.166845
  H  1.0           -0.221285        1.185727       -1.104229
  O  8.0           -2.184658       -0.678054        2.406980
  H  1.0           -1.891809       -1.575327        2.411315
  H  1.0           -1.655663       -0.216986        3.038216
  O  8.0           -3.285010       -1.061820        0.543742
  H  1.0           -2.665099       -0.353799        0.470985
  H  1.0           -2.782216       -1.850968        0.667525
  O  8.0            2.174513        2.155021        0.813419
  H  1.0            2.946583        1.614545        0.865108
  H  1.0            1.938284        2.376118        1.700093
  O  8.0           -2.626026        2.244041       -0.307390
  H  1.0           -1.890487        2.228423       -0.898674
  H  1.0           -3.040939        1.398445       -0.368149
  O  8.0           -2.353448       -1.503256       -1.376640
  H  1.0           -1.533465       -1.037268       -1.413545
  H  1.0           -3.036739       -0.852876       -1.408221
  O  8.0            2.538813        1.524350       -1.069385
  H  1.0            1.752932        1.080850       -0.792658
  H  1.0            2.994450        0.933566       -1.647526
  O  8.0            2.288714       -0.050295        1.710686
  H  1.0            2.605051       -0.881589        2.026532
  H  1.0            2.339747        0.552435        2.435248
  O  8.0           -0.789792       -3.228121       -0.853866
  H  1.0           -1.007963       -2.914994       -1.717134
  H  1.0           -1.532349       -3.041503       -0.301905
 $end
