 $contrl inttyp=rotaxis $end
 $SYSTEM MWORDS=1600 $END
 $SYSTEM MEMDDI=0 $END
 $CONTRL nprint=-5 SCFTYP=RHF MULT=1 ICHARG=0 ISPHER=1 $END
 $CONTRL RUNTYP=ENERGY $END
 $SCF DIRSCF=.T. FDIFF=.F. $END
 $BASIS GBASIS=N31 NGAUSS=6 $END
 $DATA
 0060w_631G.inp basis 631G
 C1 
  O  8.0           -3.193018       -4.123995        1.431500
  H  1.0           -3.201513       -4.973321        1.843146
  H  1.0           -2.472969       -4.125493        0.821249
  O  8.0           -0.519104       -5.872179        1.794382
  H  1.0           -0.774182       -5.557668        2.646964
  H  1.0           -0.609841       -5.145545        1.198859
  O  8.0            5.423547        2.013189       -1.529160
  H  1.0            4.538569        1.833655       -1.254459
  H  1.0            5.909830        1.211856       -1.418381
  O  8.0           -3.411676        0.523078       -2.332363
  H  1.0           -4.094962        1.170495       -2.402010
  H  1.0           -2.604587        0.954542       -2.563284
  O  8.0           -2.783576       -0.997412       -4.830223
  H  1.0           -3.331281       -1.765836       -4.809662
  H  1.0           -3.158426       -0.380739       -4.221881
  O  8.0           -3.664055       -2.949192       -1.694535
  H  1.0           -3.265988       -2.147002       -1.992714
  H  1.0           -3.059402       -3.342040       -1.085484
  O  8.0            3.514028       -4.224633        1.692614
  H  1.0            4.434283       -4.026884        1.622583
  H  1.0            3.217646       -4.447586        0.824670
  O  8.0            2.801775        2.246211       -2.794710
  H  1.0            3.580563        2.779143       -2.775995
  H  1.0            3.088267        1.349505       -2.863404
  O  8.0            1.328395        5.664844       -1.183181
  H  1.0            0.488582        6.037672       -1.399031
  H  1.0            1.806916        5.587089       -1.993027
  O  8.0           -0.918690        5.585782        0.937267
  H  1.0           -1.083065        5.205528        1.785363
  H  1.0           -0.139272        6.111326        1.022052
  O  8.0            4.886650       -0.066275       -0.113205
  H  1.0            5.050572        0.678796        0.442562
  H  1.0            5.729824       -0.403301       -0.370790
  O  8.0           -0.765716        1.327285       -4.815043
  H  1.0            0.175995        1.264615       -4.803661
  H  1.0           -0.978536        2.238074       -4.688356
  O  8.0           -1.475279        4.805212       -3.674703
  H  1.0           -2.255510        4.396494       -3.335487
  H  1.0           -0.967804        4.122924       -4.084373
  O  8.0            1.224286       -4.003524       -1.747832
  H  1.0            1.116703       -3.904795       -0.815332
  H  1.0            1.835170       -4.711348       -1.876999
  O  8.0            1.579669        3.655365       -1.695407
  H  1.0            0.768668        3.950475       -2.077592
  H  1.0            1.471614        2.737221       -1.505106
  O  8.0           -0.576081       -4.918032       -0.768284
  H  1.0           -0.867796       -4.030163       -0.900454
  H  1.0           -1.341214       -5.467141       -0.830960
  O  8.0            2.241505       -0.889175        4.474697
  H  1.0            1.913960       -1.757535        4.302813
  H  1.0            1.620402       -0.474240        5.051704
  O  8.0            2.878396       -2.953317       -1.506892
  H  1.0            3.603607       -3.554170       -1.569514
  H  1.0            3.172335       -2.227283       -0.980248
  O  8.0           -0.808468       -0.027528       -1.356615
  H  1.0            0.018749        0.426719       -1.372415
  H  1.0           -0.673558       -0.852161       -1.795543
  O  8.0           -5.395561       -1.387900       -2.808721
  H  1.0           -5.049785       -0.550062       -2.545387
  H  1.0           -4.697719       -1.841653       -3.253696
  O  8.0           -2.768625       -1.712562        1.982496
  H  1.0           -3.528381       -2.182819        1.678342
  H  1.0           -3.081538       -1.040005        2.566131
  O  8.0           -0.056096        3.589999       -0.047418
  H  1.0            0.254728        3.587761        0.843796
  H  1.0           -0.015540        4.484264       -0.346624
  O  8.0            4.612239       -0.584566        3.077682
  H  1.0            5.458124       -0.190770        2.935271
  H  1.0            4.696297       -1.497093        2.851612
  O  8.0           -1.800001       -0.954065        5.166726
  H  1.0           -1.303408       -1.113439        4.380040
  H  1.0           -1.548238       -1.620297        5.786104
  O  8.0           -3.271986        1.246268        1.381201
  H  1.0           -2.597394        0.696320        1.016014
  H  1.0           -4.071813        0.745615        1.358823
  O  8.0           -1.117884       -2.399764       -3.247848
  H  1.0           -0.979120       -2.717430       -2.369947
  H  1.0           -2.014917       -2.594025       -3.468016
  O  8.0           -1.241455        2.186886       -1.825908
  H  1.0           -0.366689        2.385637       -2.119441
  H  1.0           -1.820222        2.781420       -2.275837
  O  8.0            0.345081       -0.877307        0.634319
  H  1.0            0.193097       -1.634901        0.092258
  H  1.0           -0.467761       -0.693262        1.077369
  O  8.0            0.979974        4.617848        2.683840
  H  1.0            1.753273        4.077221        2.708539
  H  1.0            1.272875        5.503990        2.542987
  O  8.0            1.741538        1.756182        5.112770
  H  1.0            2.393750        1.260121        5.581194
  H  1.0            2.201976        2.430093        4.638726
  O  8.0           -2.175056       -1.107271       -0.250429
  H  1.0           -1.712299       -1.929895       -0.255147
  H  1.0           -3.086538       -1.309546       -0.111995
  O  8.0           -4.906810        1.218573        3.592364
  H  1.0           -4.752872        0.384841        3.177548
  H  1.0           -4.521481        1.874700        3.033887
  O  8.0           -0.027713        1.507672        1.064833
  H  1.0            0.229007        1.642471        0.166612
  H  1.0            0.590986        0.898727        1.435342
  O  8.0            4.496551       -2.349664        0.598142
  H  1.0            5.271111       -2.237554        1.125747
  H  1.0            4.698973       -3.011418       -0.043720
  O  8.0           -0.339354        1.180787        5.577798
  H  1.0           -1.238475        1.228613        5.860945
  H  1.0           -0.220495        0.326132        5.195284
  O  8.0            2.265760       -0.243100       -2.058706
  H  1.0            3.185284       -0.331744       -1.865066
  H  1.0            1.802364       -0.396928       -1.250944
  O  8.0           -1.973138       -2.710038        3.445070
  H  1.0           -1.298013       -3.369077        3.472486
  H  1.0           -2.798160       -3.167772        3.418688
  O  8.0           -4.487055       -3.323136        0.326374
  H  1.0           -4.717622       -4.019361       -0.267755
  H  1.0           -5.198257       -3.245184        0.941997
  O  8.0            0.741985       -0.372180       -3.773484
  H  1.0            0.538917       -1.282783       -3.630504
  H  1.0            1.596586       -0.344329       -4.173184
  O  8.0            5.277950        0.614468       -3.270152
  H  1.0            4.956551        1.499933       -3.329594
  H  1.0            4.520762        0.054955       -3.203158
  O  8.0           -3.022468        2.150211       -4.873817
  H  1.0           -3.443259        2.064676       -4.033283
  H  1.0           -3.018497        1.290745       -5.263920
  O  8.0            2.886559        1.441946       -5.261978
  H  1.0            3.617492        1.166859       -4.731938
  H  1.0            2.136277        1.480153       -4.690579
  O  8.0            3.812664        1.219632        3.178727
  H  1.0            3.971770        1.190862        2.248815
  H  1.0            3.711248        2.129446        3.408578
  O  8.0            0.193018       -1.813677       -5.928409
  H  1.0            0.110480       -0.890735       -6.107976
  H  1.0            1.106411       -1.975499       -5.754043
  O  8.0            2.957880        0.896306       -0.183421
  H  1.0            2.267160        0.582540        0.378126
  H  1.0            2.801758        1.817582       -0.316666
  O  8.0           -2.726266        0.725241        4.680621
  H  1.0           -3.141549        1.567844        4.588760
  H  1.0           -3.407917        0.076973        4.603299
  O  8.0            4.439037        3.214118        0.157015
  H  1.0            4.194072        3.667847       -0.633554
  H  1.0            4.876436        3.844246        0.707014
  O  8.0            1.749638       -0.340816        2.424269
  H  1.0            2.620427       -0.704448        2.404853
  H  1.0            1.770400        0.380572        3.032583
  O  8.0            3.045115        2.757340        1.382563
  H  1.0            3.418153        3.419719        1.942004
  H  1.0            2.221080        3.097099        1.072065
  O  8.0           -3.949495        3.455077       -1.600329
  H  1.0           -3.733736        2.674811       -1.115034
  H  1.0           -4.708517        3.248838       -2.122086
  O  8.0           -0.619112        3.105119        4.475045
  H  1.0            0.312625        3.006789        4.589391
  H  1.0           -0.746777        3.864175        3.928772
  O  8.0            2.252843        5.647706        0.543387
  H  1.0            3.120690        5.313676        0.705077
  H  1.0            1.664674        4.911349        0.595481
  O  8.0            1.350744        3.593214       -4.791497
  H  1.0            0.906379        3.617325       -3.959129
  H  1.0            2.264416        3.444695       -4.607045
  O  8.0           -5.284201        0.382340       -0.662922
  H  1.0           -5.679621        1.196003       -0.393710
  H  1.0           -5.357781       -0.210019        0.068224
  O  8.0           -0.267474       -4.299489       -3.824976
  H  1.0           -0.143238       -5.146676       -3.427837
  H  1.0            0.570295       -4.036791       -4.171401
  O  8.0           -0.495824        0.453975        3.006473
  H  1.0           -1.375250        0.200708        2.775509
  H  1.0           -0.559607        1.288441        3.442910
  O  8.0            1.356582       -4.980872        1.071562
  H  1.0            1.595191       -4.582297        1.893196
  H  1.0            1.435644       -5.913980        1.189617
  O  8.0           -2.182640        3.824925        0.139333
  H  1.0           -2.219941        3.758285        1.080102
  H  1.0           -1.971907        2.964124       -0.185460
  O  8.0            3.319384       -1.875093       -3.657008
  H  1.0            4.049798       -1.990037       -3.070355
  H  1.0            3.605536       -1.282497       -4.333636
  O  8.0            3.219264       -3.209565        3.987968
  H  1.0            2.671477       -3.976311        3.934047
  H  1.0            3.307463       -2.876827        3.109114
 $end
