 $contrl inttyp=rotaxis $end
 $SYSTEM MWORDS=1600 $END
 $SYSTEM MEMDDI=0 $END
 $CONTRL nprint=-5 SCFTYP=RHF MULT=1 ICHARG=0 ISPHER=1 $END
 $CONTRL RUNTYP=ENERGY $END
 $SCF DIRSCF=.T. FDIFF=.F. $END
 $BASIS GBASIS=N31 NGAUSS=6 $END
 $DATA
 0080w_631G.inp basis 631G
 C1 
  O  8.0           -0.240554        3.541680       -2.147967
  H  1.0            0.554877        4.049386       -2.168011
  H  1.0           -0.025059        2.686455       -2.484166
  O  8.0            6.441505       -0.630234        2.965807
  H  1.0            6.828910       -1.490716        2.984929
  H  1.0            7.027067       -0.080041        2.470546
  O  8.0           -3.018547        0.838758        1.356769
  H  1.0           -2.978783       -0.025780        0.980112
  H  1.0           -2.248049        0.936718        1.893066
  O  8.0           -1.689123       -2.465118       -5.051064
  H  1.0           -1.968435       -1.586109       -5.251576
  H  1.0           -1.451022       -2.472419       -4.137755
  O  8.0           -1.470098        2.281685       -3.775757
  H  1.0           -1.677112        2.720361       -4.585441
  H  1.0           -1.125807        1.433801       -4.006919
  O  8.0           -0.423806       -0.278350       -0.857459
  H  1.0           -1.235663       -0.131975       -0.398828
  H  1.0           -0.373552       -1.204736       -1.031133
  O  8.0            1.413675        6.194415        2.050262
  H  1.0            0.750873        5.802655        2.596242
  H  1.0            1.098766        7.052436        1.814656
  O  8.0            4.039389        1.650374        6.255229
  H  1.0            3.738134        0.762327        6.362447
  H  1.0            3.269279        2.193324        6.200328
  O  8.0           -3.830006       -0.857604       -0.712291
  H  1.0           -3.299169       -0.172054       -1.085267
  H  1.0           -4.697209       -0.500941       -0.604459
  O  8.0           -5.635893        1.524112        4.274100
  H  1.0           -5.198696        1.298650        5.079646
  H  1.0           -6.263988        0.840006        4.105654
  O  8.0           -0.020884        1.999869        0.881948
  H  1.0            0.479597        1.273832        0.545394
  H  1.0           -0.931160        1.769246        0.786620
  O  8.0            4.686072       -3.595812       -0.711995
  H  1.0            4.673278       -3.432526       -1.641539
  H  1.0            5.580062       -3.794762       -0.483788
  O  8.0           -2.179936        0.551682        7.263276
  H  1.0           -1.603941        1.297810        7.312277
  H  1.0           -1.631794       -0.216295        7.288380
  O  8.0            2.503097       -1.630258       -3.642843
  H  1.0            2.320650       -0.711993       -3.762766
  H  1.0            1.719409       -2.018449       -3.287853
  O  8.0           -3.234630       -2.872710        4.685011
  H  1.0           -3.462126       -2.008209        4.382088
  H  1.0           -2.377500       -2.806789        5.074705
  O  8.0           -5.243131       -4.883260       -0.858865
  H  1.0           -4.301862       -4.872893       -0.789705
  H  1.0           -5.547385       -4.046457       -0.545707
  O  8.0            0.774698        0.399811       -3.588966
  H  1.0            0.821461        0.260827       -4.521369
  H  1.0            0.559183       -0.433200       -3.200991
  O  8.0            6.589771        0.580721       -3.741947
  H  1.0            6.991540        0.207389       -2.973778
  H  1.0            6.498528        1.505746       -3.577989
  O  8.0           -4.741318        0.790772       -4.664766
  H  1.0           -5.383894        0.466006       -5.275095
  H  1.0           -3.938488        0.900422       -5.148830
  O  8.0            3.794675        1.257490       -6.086781
  H  1.0            4.402082        1.949728       -5.880040
  H  1.0            4.310317        0.484114       -6.250735
  O  8.0            5.231820        2.485984        3.651296
  H  1.0            4.357048        2.156027        3.521758
  H  1.0            5.554871        2.093345        4.446501
  O  8.0            0.647676       -2.096309       -6.198613
  H  1.0            0.015670       -1.673494       -6.757786
  H  1.0            1.423176       -2.231449       -6.719397
  O  8.0            5.397402        4.769056       -2.622245
  H  1.0            4.478516        4.802831       -2.409206
  H  1.0            5.673617        3.876078       -2.491192
  O  8.0            2.099384        2.071207       -0.095381
  H  1.0            1.702929        2.768547       -0.592794
  H  1.0            2.294857        1.379118       -0.706675
  O  8.0           -3.316049        0.529913        5.021096
  H  1.0           -2.869176       -0.285062        5.185409
  H  1.0           -3.463501        0.575507        4.089937
  O  8.0            5.929522        3.923832        0.678651
  H  1.0            5.905664        4.783183        0.289004
  H  1.0            6.217736        4.038094        1.570142
  O  8.0            1.990707       -0.031896        2.899331
  H  1.0            1.449424       -0.713022        2.533330
  H  1.0            1.595829        0.217015        3.719692
  O  8.0            3.808302        3.129192        0.059903
  H  1.0            3.976160        3.725009        0.772437
  H  1.0            4.549044        3.186896       -0.522205
  O  8.0           -4.929193        2.646644       -3.362814
  H  1.0           -4.177627        2.330461       -2.887360
  H  1.0           -4.800012        3.573001       -3.489517
  O  8.0           -0.225973        3.501614        5.804661
  H  1.0           -0.998020        2.959429        5.833944
  H  1.0            0.455280        2.982386        5.408209
  O  8.0            2.097930        6.699179       -0.290676
  H  1.0            2.821440        7.059337        0.196868
  H  1.0            1.357616        7.263327       -0.133993
  O  8.0            1.788016        4.354915       -5.959711
  H  1.0            0.984717        4.606795       -5.532924
  H  1.0            1.586306        3.605672       -6.497136
  O  8.0           -7.449260       -0.238336       -0.760314
  H  1.0           -6.859452       -0.950873       -0.572442
  H  1.0           -6.995664        0.340473       -1.352013
  O  8.0            0.611563       -6.236372       -3.921141
  H  1.0            0.508426       -6.865485       -3.225110
  H  1.0            1.432484       -5.796003       -3.769341
  O  8.0           -0.203634        0.980624        3.528577
  H  1.0           -1.001886        0.543389        3.278579
  H  1.0           -0.413521        1.525354        4.270261
  O  8.0           -0.570547        4.353127        0.090303
  H  1.0           -1.300365        3.759816        0.169206
  H  1.0           -0.928205        5.226491        0.104233
  O  8.0            4.231583       -0.698150       -3.624688
  H  1.0            4.802495       -1.445151       -3.707917
  H  1.0            4.278958       -0.228125       -4.441823
  O  8.0            2.838999       -4.626449        3.353431
  H  1.0            3.234896       -4.676529        4.208788
  H  1.0            3.240178       -3.895450        2.911195
  O  8.0           -4.833722        2.350957       -0.382682
  H  1.0           -5.666267        2.279372       -0.821570
  H  1.0           -4.767924        1.608942        0.196941
  O  8.0           -6.316929       -1.455908        2.806091
  H  1.0           -5.838202       -2.206794        2.493250
  H  1.0           -5.786854       -1.056578        3.477236
  O  8.0            3.089329       -1.174369       -1.490543
  H  1.0            3.859186       -1.557147       -1.880004
  H  1.0            2.641849       -1.869235       -1.034692
  O  8.0            1.650975       -1.549493        4.420903
  H  1.0            0.747390       -1.822277        4.419227
  H  1.0            2.171954       -2.336550        4.420642
  O  8.0            1.516427       -6.124034        2.835174
  H  1.0            1.078413       -5.377302        3.211223
  H  1.0            0.850761       -6.770624        2.662872
  O  8.0            5.643644       -0.712187        1.036947
  H  1.0            4.906108       -0.501053        1.586802
  H  1.0            5.656743       -0.072362        0.343166
  O  8.0            2.202091        5.224788       -2.274523
  H  1.0            2.612435        4.376433       -2.221714
  H  1.0            2.865561        5.860886       -2.059898
  O  8.0           -2.365465        4.495061       -3.817433
  H  1.0           -3.267590        4.768422       -3.865627
  H  1.0           -2.105990        4.574066       -2.913381
  O  8.0            4.210381        2.379443       -3.181699
  H  1.0            4.281625        2.989842       -3.898089
  H  1.0            3.998020        2.885781       -2.413973
  O  8.0           -0.805907       -0.869048        1.922917
  H  1.0           -0.614161       -1.471074        1.221721
  H  1.0           -1.715734       -0.989952        2.143089
  O  8.0           -1.289772       -0.983702       -2.767086
  H  1.0           -1.935275       -1.436510       -2.248270
  H  1.0           -1.716909       -0.223664       -3.128715
  O  8.0            1.721890        0.842523        6.996904
  H  1.0            0.982645        0.570271        7.516782
  H  1.0            1.545021        0.570664        6.110513
  O  8.0            3.981772       -0.550317        4.313874
  H  1.0            3.464497        0.225500        4.167542
  H  1.0            4.798394       -0.264694        4.691268
  O  8.0           -4.692630       -5.708031        1.116909
  H  1.0           -3.987747       -5.080539        1.100368
  H  1.0           -5.494788       -5.217107        1.036818
  O  8.0           -2.833439       -5.286800        3.176313
  H  1.0           -3.181379       -4.580368        3.696668
  H  1.0           -3.464947       -5.987321        3.213004
  O  8.0            3.161039        2.132946        1.644571
  H  1.0            2.693560        1.845884        2.412644
  H  1.0            3.586911        1.370938        1.285608
  O  8.0           -4.296416       -3.196818       -1.845981
  H  1.0           -4.951135       -2.531712       -1.986890
  H  1.0           -3.536936       -2.759841       -1.495100
  O  8.0           -1.700000       -2.996517        2.300660
  H  1.0           -1.590442       -3.808184        2.769777
  H  1.0           -1.567602       -3.191432        1.386681
  O  8.0            2.285900        3.153262        4.609717
  H  1.0            2.299919        2.262532        4.297815
  H  1.0            3.185508        3.429651        4.681773
  O  8.0           -2.669089        2.933517        4.674357
  H  1.0           -2.761617        3.810283        5.011400
  H  1.0           -3.509710        2.515426        4.771482
  O  8.0           -3.537040        6.010879       -1.100952
  H  1.0           -4.085154        6.396851       -0.436517
  H  1.0           -4.104665        5.506554       -1.661608
  O  8.0            4.341085       -2.874523        1.213396
  H  1.0            3.777393       -2.130142        1.351332
  H  1.0            5.227135       -2.549423        1.223610
  O  8.0           -1.297742        5.952125        2.183908
  H  1.0           -1.307001        6.048210        3.122822
  H  1.0           -1.425514        5.034448        2.003849
  O  8.0           -1.957515        1.554472       -6.215657
  H  1.0           -2.171621        0.638905       -6.133360
  H  1.0           -2.776367        2.020747       -6.269933
  O  8.0           -1.870655       -3.583118       -0.693607
  H  1.0           -1.981138       -4.384988       -1.179072
  H  1.0           -0.956615       -3.528332       -0.464682
  O  8.0            2.299497       -4.222764       -4.601826
  H  1.0            2.387204       -4.572988       -5.473909
  H  1.0            1.828151       -3.408998       -4.682424
  O  8.0           -5.344349        0.266614        1.681929
  H  1.0           -6.047022        0.784258        2.041337
  H  1.0           -4.670510        0.228537        2.341755
  O  8.0            3.175584       -2.020534        6.140013
  H  1.0            2.780880       -1.167066        6.221740
  H  1.0            4.108973       -1.885324        6.102853
  O  8.0            2.177835        5.183459        3.811676
  H  1.0            2.482532        4.787882        3.010704
  H  1.0            2.911288        5.649361        4.180269
  O  8.0           -4.959925       -0.635056       -2.683613
  H  1.0           -4.689222        0.267417       -2.739651
  H  1.0           -5.903742       -0.636253       -2.692948
  O  8.0            3.730411       -2.817915       -4.716829
  H  1.0            3.638405       -1.990475       -5.161525
  H  1.0            4.425745       -3.284259       -5.152620
  O  8.0            4.748449       -5.344335        2.422205
  H  1.0            5.033730       -4.746496        1.749835
  H  1.0            4.886091       -4.909151        3.248370
  O  8.0           -5.000115       -2.544564        0.757199
  H  1.0           -4.517522       -1.802522        1.084852
  H  1.0           -4.756573       -3.283789        1.291158
  O  8.0           -3.942743        3.078029        1.723628
  H  1.0           -4.476845        3.851399        1.636956
  H  1.0           -3.131456        3.257031        1.275689
  O  8.0           -4.154032       -3.241886       -4.088002
  H  1.0           -3.365272       -3.327688       -3.576755
  H  1.0           -4.401573       -4.113257       -4.353172
  O  8.0           -1.306015        2.466810        2.815923
  H  1.0           -1.986071        3.121230        2.827560
  H  1.0           -0.486055        2.928886        2.744998
  O  8.0            2.434633        0.900744       -2.641909
  H  1.0            3.351145        0.677573       -2.609075
  H  1.0            2.387263        1.832376       -2.785768
  O  8.0            0.856389       -3.291354       -1.969755
  H  1.0            1.627484       -3.832453       -1.910558
  H  1.0            0.128302       -3.872370       -2.122033
  O  8.0            1.998552        1.441075       -5.309624
  H  1.0            1.231631        1.961792       -5.487288
  H  1.0            2.550532        1.955719       -4.742759
  O  8.0           -0.417319       -0.337638        4.885963
  H  1.0           -1.020056       -1.059262        4.803230
  H  1.0           -0.293987       -0.191798        5.810299
  O  8.0           -2.291770       -5.996755       -3.541664
  H  1.0           -2.168851       -5.623728       -4.399930
  H  1.0           -2.007356       -5.346142       -2.919820
  O  8.0           -2.843462        1.964420       -1.470344
  H  1.0           -2.365165        2.588611       -1.992356
  H  1.0           -2.864359        2.305896       -0.590665
 $end
