 $contrl inttyp=rotaxis $end
 $SYSTEM MWORDS=1600 $END
 $SYSTEM MEMDDI=0 $END
 $CONTRL nprint=-5 SCFTYP=RHF MULT=1 ICHARG=0 ISPHER=1 $END
 $CONTRL RUNTYP=ENERGY $END
 $SCF DIRSCF=.T. FDIFF=.F. $END
 $BASIS GBASIS=N31 NGAUSS=6 $END
 $DATA
 0090w_631G.inp basis 631G
 C1 
  O  8.0            5.606101       -3.766226       -0.370099
  H  1.0            4.755512       -3.764625       -0.779212
  H  1.0            5.653066       -4.549090        0.155064
  O  8.0           -2.627541        0.736475        7.773293
  H  1.0           -2.993508        0.321358        7.008686
  H  1.0           -1.870854        0.229654        8.021157
  O  8.0            2.154362       -0.402802       -3.399492
  H  1.0            2.490304       -1.123767       -3.907656
  H  1.0            2.153045       -0.683447       -2.498318
  O  8.0           -3.013552       -2.698592        5.235773
  H  1.0           -3.485383       -3.490590        5.033305
  H  1.0           -2.104288       -2.938037        5.318127
  O  8.0           -6.040026       -4.538304       -0.001218
  H  1.0           -6.494598       -4.254501        0.775762
  H  1.0           -6.693269       -4.890946       -0.584138
  O  8.0            0.398178       -0.395256       -4.303718
  H  1.0           -0.006938        0.445863       -4.164874
  H  1.0            0.956129       -0.306140       -5.059778
  O  8.0            6.713481        0.817044       -4.517390
  H  1.0            6.975470       -0.089529       -4.498296
  H  1.0            7.241746        1.265642       -3.876628
  O  8.0           -4.800405        0.049306       -5.386210
  H  1.0           -5.692944        0.257112       -5.612191
  H  1.0           -4.722923        0.165100       -4.452686
  O  8.0            4.282738        0.536880       -6.060726
  H  1.0            4.240124        1.091055       -6.823584
  H  1.0            4.376472        1.108199       -5.315282
  O  8.0            5.562952        2.561782        4.467546
  H  1.0            5.909147        2.136834        3.699141
  H  1.0            4.698808        2.208584        4.606770
  O  8.0            0.272540       -2.065145       -5.932023
  H  1.0           -0.317369       -2.053362       -5.195310
  H  1.0           -0.027415       -1.399684       -6.530410
  O  8.0            5.879606        5.328980       -2.244507
  H  1.0            5.320279        4.881485       -1.629869
  H  1.0            5.439816        5.304291       -3.079285
  O  8.0            2.648211        2.377253       -0.454380
  H  1.0            2.192476        3.108504       -0.839679
  H  1.0            3.102264        2.709407        0.303504
  O  8.0           -3.533424        0.234768        4.953565
  H  1.0           -2.622465        0.474345        5.013857
  H  1.0           -3.971807        0.944156        4.511448
  O  8.0            6.514405        5.211202        0.126097
  H  1.0            5.900029        5.675389        0.671945
  H  1.0            6.209853        4.319428        0.072581
  O  8.0            3.016181       -0.460237        2.777664
  H  1.0            3.006408       -0.174656        3.677234
  H  1.0            2.957982       -1.402204        2.791434
  O  8.0            4.356211        4.125384        0.949165
  H  1.0            3.989411        4.942689        0.651932
  H  1.0            4.846592        4.317066        1.732531
  O  8.0           -4.928417        3.269194       -2.247035
  H  1.0           -5.151891        2.378769       -2.027761
  H  1.0           -4.185438        3.227307       -2.827643
  O  8.0           -0.393609        3.991315        5.372119
  H  1.0           -0.240738        3.065042        5.274512
  H  1.0            0.454416        4.404807        5.399614
  O  8.0            2.940423        6.832513        0.231859
  H  1.0            3.360490        7.564601        0.654315
  H  1.0            2.045755        6.822658        0.532442
  O  8.0            2.000669        4.107826       -6.264460
  H  1.0            1.536449        4.643464       -5.641187
  H  1.0            1.347890        3.631018       -6.751708
  O  8.0           -7.670364       -0.584977       -0.480493
  H  1.0           -7.959385        0.312739       -0.518583
  H  1.0           -6.726694       -0.566224       -0.476666
  O  8.0            0.594240       -6.582236       -3.305746
  H  1.0            0.669510       -6.508054       -2.367818
  H  1.0            0.564411       -7.504692       -3.503391
  O  8.0           -0.394187        0.294642        3.683116
  H  1.0           -0.999244       -0.429501        3.663082
  H  1.0           -0.914135        1.082158        3.701861
  O  8.0            1.784088       -7.283778        1.662164
  H  1.0            1.480643       -7.885176        1.001013
  H  1.0            2.669658       -7.534664        1.871212
  O  8.0           -1.243504        4.943195        0.339572
  H  1.0           -1.459003        4.680115       -0.540897
  H  1.0           -1.132398        5.880353        0.323173
  O  8.0            5.541746       -0.114433       -3.142910
  H  1.0            5.923577        0.550323       -2.592289
  H  1.0            5.983843       -0.922904       -2.938451
  O  8.0            3.634515       -5.345008        4.487434
  H  1.0            2.968237       -5.209237        5.142047
  H  1.0            4.115763       -4.535996        4.418312
  O  8.0           -0.511050       -4.689048       -5.852282
  H  1.0           -0.086039       -5.057946       -6.610015
  H  1.0            0.047235       -3.995535       -5.538856
  O  8.0           -5.904653        1.580511        0.070154
  H  1.0           -5.266370        2.265052       -0.051821
  H  1.0           -6.753954        1.988709        0.015931
  O  8.0           -6.610326       -2.386587        3.904769
  H  1.0           -6.831630       -1.509783        3.634368
  H  1.0           -5.904604       -2.672500        3.347016
  O  8.0            3.425772       -1.945348       -1.495428
  H  1.0            3.921606       -1.296576       -1.968843
  H  1.0            3.521622       -1.744023       -0.578281
  O  8.0            1.131716       -1.052672        4.440359
  H  1.0            1.793439       -0.987190        5.110220
  H  1.0            0.606889       -1.808513        4.650451
  O  8.0            1.271732       -6.744186        3.846725
  H  1.0            0.513790       -6.181836        3.833895
  H  1.0            1.995553       -6.231291        3.524391
  O  8.0            0.448543        6.987799       -4.426734
  H  1.0            0.936191        6.946121       -3.619677
  H  1.0            0.495747        6.129623       -4.816841
  O  8.0            5.853470       -0.877767        1.787877
  H  1.0            5.127576       -0.275980        1.830406
  H  1.0            6.620719       -0.363958        1.592409
  O  8.0            2.402887        5.244748       -1.906538
  H  1.0            3.344026        5.311501       -1.932605
  H  1.0            2.078816        6.086523       -1.628560
  O  8.0           -2.679551        4.918368       -3.222279
  H  1.0           -2.408427        4.014470       -3.203858
  H  1.0           -3.537232        4.936360       -3.615901
  O  8.0            3.953068        3.000978       -2.951230
  H  1.0            3.372608        3.724381       -3.126255
  H  1.0            4.425891        3.217024       -2.163423
  O  8.0           -1.224860       -0.582225        0.884249
  H  1.0           -1.998939       -0.998801        1.227968
  H  1.0           -0.651617       -0.427392        1.617937
  O  8.0           -1.712430       -1.556146       -3.207062
  H  1.0           -1.487506       -0.970764       -3.912481
  H  1.0           -1.489089       -1.112312       -2.404561
  O  8.0            1.459340       -0.035831        7.285367
  H  1.0            2.100155        0.244870        6.651773
  H  1.0            1.453386        0.612934        7.970894
  O  8.0            4.973533       -0.541695        4.620035
  H  1.0            5.639943       -0.832781        5.221737
  H  1.0            5.278298        0.271534        4.250367
  O  8.0           -5.546441       -5.901440        1.370169
  H  1.0           -4.836172       -6.522530        1.344812
  H  1.0           -5.649995       -5.644438        2.272446
  O  8.0            3.769802        2.788015        2.509844
  H  1.0            3.635849        1.922605        2.861980
  H  1.0            2.923299        3.103773        2.236702
  O  8.0           -3.864028       -2.076229       -2.943897
  H  1.0           -3.246622       -2.467537       -2.346765
  H  1.0           -3.906019       -1.158393       -2.727814
  O  8.0           -2.124204       -2.424204        2.920151
  H  1.0           -2.076064       -3.360935        3.025490
  H  1.0           -2.913648       -2.246049        2.434437
  O  8.0            2.887460        2.576068        5.325103
  H  1.0            3.241254        3.210699        5.927558
  H  1.0            2.328718        3.049408        4.729591
  O  8.0           -3.043526        3.212238        4.977882
  H  1.0           -2.761932        4.112779        4.953216
  H  1.0           -2.261614        2.683977        4.998671
  O  8.0           -3.774257        5.710705       -0.226296
  H  1.0           -4.597265        5.278494       -0.389786
  H  1.0           -3.979952        6.584548        0.065195
  O  8.0            4.328597       -2.544092        1.627861
  H  1.0            3.888742       -3.377765        1.676798
  H  1.0            5.226621       -2.724149        1.399805
  O  8.0           -1.509003        5.640888        2.806283
  H  1.0           -0.904514        6.365274        2.779166
  H  1.0           -2.376766        6.011999        2.818287
  O  8.0           -2.660824        1.152175       -5.230943
  H  1.0           -3.232292        1.764672       -5.665857
  H  1.0           -1.982269        0.929119       -5.847942
  O  8.0           -1.981449       -3.988468       -1.323496
  H  1.0           -1.704075       -4.845925       -1.042945
  H  1.0           -1.199744       -3.468128       -1.418690
  O  8.0            2.063033       -5.515028       -5.563025
  H  1.0            1.985701       -4.778703       -4.977600
  H  1.0            1.994345       -6.292253       -5.031912
  O  8.0           -4.801362       -0.188987        1.954288
  H  1.0           -4.358045       -0.224267        2.786817
  H  1.0           -5.208926        0.660599        1.899758
  O  8.0            4.105330       -1.913464        6.004339
  H  1.0            4.372218       -2.792360        5.787104
  H  1.0            3.183672       -1.951427        6.204296
  O  8.0            2.851146        5.829494        4.221919
  H  1.0            3.050220        4.943249        4.478470
  H  1.0            1.974360        6.008369        4.522133
  O  8.0           -4.992925       -0.188114       -1.372018
  H  1.0           -5.422921        0.417680       -1.954251
  H  1.0           -4.372599        0.313931       -0.868010
  O  8.0            4.578592       -3.064134       -5.420865
  H  1.0            5.405025       -3.485208       -5.245982
  H  1.0            3.963635       -3.749335       -5.628724
  O  8.0            5.762355       -5.337892        2.079808
  H  1.0            5.465910       -4.467214        2.291747
  H  1.0            5.201915       -5.936549        2.547137
  O  8.0           -2.215073        2.669068       -7.125141
  H  1.0           -2.757614        3.424424       -6.964006
  H  1.0           -2.760933        2.029486       -7.553918
  O  8.0           -5.993169       -2.319185        0.921368
  H  1.0           -6.668121       -1.728938        1.216202
  H  1.0           -5.200763       -1.811335        0.850236
  O  8.0           -4.197363        3.413583        2.219457
  H  1.0           -5.042909        2.998462        2.159427
  H  1.0           -3.780627        3.302976        1.379828
  O  8.0           -3.465371       -4.122778       -3.411255
  H  1.0           -3.624667       -5.001411       -3.717045
  H  1.0           -3.232799       -3.609904       -4.168717
  O  8.0           -1.565548        3.173522        3.162326
  H  1.0           -2.349862        3.688402        3.059230
  H  1.0           -0.837464        3.767680        3.074305
  O  8.0            3.174886        1.301781       -2.362909
  H  1.0            2.257547        1.479195       -2.496670
  H  1.0            3.237457        0.766045       -1.588345
  O  8.0            0.801592       -4.068155       -1.826701
  H  1.0            0.372454       -4.648185       -1.218191
  H  1.0            1.705366       -4.337355       -1.866721
  O  8.0            2.341337        1.895260       -5.568003
  H  1.0            1.874709        1.319487       -6.152488
  H  1.0            1.691424        2.417259       -5.125276
  O  8.0           -0.089384       -0.118083        5.735110
  H  1.0           -0.442554        0.755403        5.791422
  H  1.0           -0.797975       -0.710296        5.930202
  O  8.0           -1.532004       -5.606871       -3.393141
  H  1.0           -1.875655       -6.364374       -2.947077
  H  1.0           -0.833953       -5.268798       -2.855266
  O  8.0           -3.402762        2.804774       -1.001252
  H  1.0           -2.941275        1.985117       -1.079166
  H  1.0           -2.829511        3.472373       -1.342682
  O  8.0            1.002703        2.737722        7.340070
  H  1.0            1.902779        2.697472        7.621355
  H  1.0            0.925519        2.163908        6.594646
  O  8.0            4.223253        2.922480       -6.081826
  H  1.0            5.133862        2.887302       -5.835998
  H  1.0            4.021446        3.829776       -6.246040
  O  8.0            3.339808       -4.563698       -2.983819
  H  1.0            3.559474       -5.122577       -3.712022
  H  1.0            3.920345       -3.820753       -3.027269
  O  8.0           -1.761500       -2.327948       -6.821081
  H  1.0           -2.496873       -2.555377       -7.367324
  H  1.0           -1.565314       -3.089625       -6.299318
  O  8.0           -2.702760        1.508569        1.213447
  H  1.0           -2.931358        1.492794        2.129073
  H  1.0           -3.507497        1.405471        0.731111
  O  8.0           -0.474142       -4.013483        0.673218
  H  1.0            0.460530       -3.917334        0.762787
  H  1.0           -0.648343       -4.939975        0.626887
  O  8.0           -5.053244        5.687612        1.765443
  H  1.0           -5.269018        5.831650        2.672953
  H  1.0           -4.177211        5.336736        1.747275
  O  8.0            5.640019        3.183137       -3.937905
  H  1.0            5.511322        2.248974       -3.978574
  H  1.0            6.571559        3.326726       -3.887979
  O  8.0           -0.677504        3.629336       -4.489549
  H  1.0           -0.301080        2.765531       -4.434563
  H  1.0            0.039582        4.241250       -4.442350
  O  8.0            4.570027        0.811753       -0.116041
  H  1.0            5.261057        1.132061        0.441417
  H  1.0            4.967014        0.201640       -0.716908
  O  8.0           -4.805911       -1.819224        5.113816
  H  1.0           -4.839459       -1.586880        6.028020
  H  1.0           -4.898448       -1.016336        4.626285
  O  8.0           -7.440572        0.534399       -3.095835
  H  1.0           -7.019094        0.158872       -3.852284
  H  1.0           -7.207593        1.448945       -3.081544
  O  8.0           -5.307208        2.165927       -5.140872
  H  1.0           -5.622544        3.041157       -5.300287
  H  1.0           -5.759599        1.849849       -4.375160
  O  8.0            0.844639       -2.273835       -3.566306
  H  1.0            0.723587       -2.231607       -2.631190
  H  1.0            0.653726       -3.161321       -3.824761
  O  8.0           -2.754621       -3.563991        0.630764
  H  1.0           -3.620933       -3.923156        0.524071
  H  1.0           -2.830284       -2.631488        0.505902
  O  8.0           -1.591409        6.397722       -1.622349
  H  1.0           -1.322722        6.764820       -2.449346
  H  1.0           -1.986108        7.099312       -1.129538
  O  8.0            0.161544        2.958241        0.471257
  H  1.0           -0.743158        2.825363        0.705215
  H  1.0            0.557666        2.102895        0.422801
  O  8.0           -1.488199        5.933296       -4.315101
  H  1.0           -1.926435        6.739067       -4.537722
  H  1.0           -1.725145        5.303727       -4.977203
 $end
