 $contrl inttyp=rotaxis $end
 $SYSTEM MWORDS=1600 $END
 $SYSTEM MEMDDI=0 $END
 $CONTRL nprint=-5 SCFTYP=RHF MULT=1 ICHARG=0 ISPHER=1 $END
 $CONTRL RUNTYP=ENERGY $END
 $SCF DIRSCF=.T. FDIFF=.F. $END
 $BASIS GBASIS=N31 NGAUSS=6 NDFUNC=1 DIFFSP=.t. $END
 $DATA
 0010w_631++Gdp.inp basis 631++Gdp
 C1 
  O  8.0            0.315540        0.347021        2.473359
  H  1.0            1.122046       -0.141770        2.512224
  H  1.0            0.540401        1.219536        2.192230
  O  8.0            1.275488       -0.189199       -1.655460
  H  1.0            2.160499        0.132586       -1.719405
  H  1.0            0.981150       -0.350696       -2.537595
  O  8.0           -2.149247        0.341720       -0.717327
  H  1.0           -2.849402        0.105016       -0.130272
  H  1.0           -2.211827       -0.236030       -1.461079
  O  8.0           -0.999834        2.223930        0.517412
  H  1.0           -1.822950        2.075173        0.080114
  H  1.0           -0.498514        1.429029        0.429725
  O  8.0           -0.087097       -1.902980       -1.994232
  H  1.0            0.740283       -2.079850       -1.575856
  H  1.0           -0.536389       -1.274472       -1.452022
  O  8.0           -2.053029        0.725072        1.654716
  H  1.0           -1.427544        1.220055        2.159334
  H  1.0           -1.619976       -0.071255        1.391643
  O  8.0            2.644880        0.136899        0.758520
  H  1.0            2.042706        0.827606        0.984769
  H  1.0            2.122401       -0.597593        0.478493
  O  8.0           -0.815447       -2.577654       -0.007844
  H  1.0           -0.414531       -2.543233        0.845948
  H  1.0           -1.592499       -2.043631        0.035608
  O  8.0            1.371950        2.254998       -0.750551
  H  1.0            0.594517        2.737820       -0.519556
  H  1.0            1.195430        1.836224       -1.577804
  O  8.0           -1.285516        1.312422       -2.204640
  H  1.0           -0.725868        0.581309       -2.412355
  H  1.0           -0.770526        1.909438       -1.685762
 $end
