 $contrl inttyp=rotaxis $end
 $SYSTEM MWORDS=1600 $END
 $SYSTEM MEMDDI=0 $END
 $CONTRL nprint=-5 SCFTYP=RHF MULT=1 ICHARG=0 ISPHER=1 $END
 $CONTRL RUNTYP=ENERGY $END
 $SCF DIRSCF=.T. FDIFF=.F. $END
 $BASIS GBASIS=N31 NGAUSS=6 NDFUNC=1 DIFFSP=.t. $END
 $DATA
 0030w_631++Gdp.inp basis 631++Gdp
 C1 
  O  8.0            1.556560       -0.771010        3.333211
  H  1.0            1.702130        0.054792        3.766499
  H  1.0            2.407240       -1.148390        3.175710
  O  8.0            0.805200        0.304767       -0.007594
  H  1.0            0.076072       -0.078412        0.453301
  H  1.0            0.947878       -0.223520       -0.776641
  O  8.0           -0.696640       -0.859814        2.588866
  H  1.0           -0.252549       -1.516225        3.101493
  H  1.0           -0.128873       -0.106277        2.562411
  O  8.0           -4.133679       -0.795506       -0.064105
  H  1.0           -3.397580       -1.378495        0.031613
  H  1.0           -3.779384        0.068409       -0.201959
  O  8.0            2.447030        2.999004        0.417816
  H  1.0            2.019728        2.222514        0.093234
  H  1.0            1.791979        3.678023        0.444636
  O  8.0            2.542427       -0.792414        0.914488
  H  1.0            2.676072       -0.297451        0.122006
  H  1.0            1.975038       -0.276108        1.464375
  O  8.0           -1.211409       -1.395977       -3.702277
  H  1.0           -1.836823       -0.707528       -3.541737
  H  1.0           -0.831394       -1.617424       -2.867156
  O  8.0            3.689469        0.987411       -1.517377
  H  1.0            2.934003        0.495466       -1.796911
  H  1.0            3.395413        1.870536       -1.360856
  O  8.0            1.051610       -2.659212       -0.112145
  H  1.0            0.204619       -2.291486       -0.307750
  H  1.0            1.692072       -2.010552       -0.356945
  O  8.0           -3.148705        1.875147        0.272712
  H  1.0           -2.304908        2.168109        0.577768
  H  1.0           -3.632947        1.601733        1.035360
  O  8.0           -0.038149       -3.303207       -2.258433
  H  1.0            0.684584       -2.953178       -2.754432
  H  1.0            0.335565       -3.808840       -1.554479
  O  8.0           -0.320331        0.810762       -1.889916
  H  1.0           -1.203889        0.710756       -2.206463
  H  1.0           -0.359938        1.406089       -1.158551
  O  8.0            1.773488       -2.734729        2.172002
  H  1.0            1.198076       -2.050615        1.869072
  H  1.0            2.625325       -2.553699        1.808025
  O  8.0           -0.732642        2.555463       -2.712158
  H  1.0           -0.024469        3.179386       -2.721597
  H  1.0           -0.689235        2.083457       -3.528372
  O  8.0            0.220000        1.616580        1.448045
  H  1.0            0.312080        2.468757        1.052830
  H  1.0           -0.704303        1.426863        1.471496
  O  8.0           -2.137722        2.237863       -1.368368
  H  1.0           -1.917817        3.142937       -1.215521
  H  1.0           -3.035874        2.222111       -1.658114
  O  8.0           -1.311529        2.918586        2.618628
  H  1.0           -1.359998        3.388897        1.801721
  H  1.0           -0.397480        2.867349        2.848338
  O  8.0            0.707388       -0.017487       -4.023124
  H  1.0            0.703750       -0.956294       -3.925626
  H  1.0           -0.194698        0.251638       -4.091611
  O  8.0           -2.817705       -0.573142        1.741843
  H  1.0           -2.669937       -1.011474        2.564587
  H  1.0           -3.693654       -0.223100        1.774441
  O  8.0            3.699300       -1.303803       -1.241494
  H  1.0            3.649899       -1.898003       -0.509808
  H  1.0            2.951564       -1.484272       -1.788485
  O  8.0           -3.484656       -0.104168       -2.131980
  H  1.0           -2.761756       -0.581279       -1.756935
  H  1.0           -3.111879        0.548893       -2.702443
  O  8.0           -1.752726       -2.622367       -1.439404
  H  1.0           -1.682988       -3.530262       -1.190926
  H  1.0           -2.536627       -2.542776       -1.959061
  O  8.0           -1.816260        0.603765        3.307191
  H  1.0           -2.552190        1.120569        3.020487
  H  1.0           -1.159201        1.210897        3.608095
  O  8.0           -0.163342        4.028767       -0.729431
  H  1.0            0.308126        3.212516       -0.777692
  H  1.0           -0.555188        4.065405        0.128470
  O  8.0            3.332116        1.233447        1.186465
  H  1.0            3.902230        1.211286        0.434563
  H  1.0            3.693499        0.632993        1.818712
  O  8.0            0.269997       -3.724088        1.361962
  H  1.0           -0.465127       -4.064007        0.877270
  H  1.0           -0.040158       -3.545379        2.235315
  O  8.0           -1.488734       -1.016248       -0.312198
  H  1.0           -1.829713       -0.175028       -0.053429
  H  1.0           -0.932909       -0.865310       -1.059965
  O  8.0            1.600880        1.865212       -2.191034
  H  1.0            1.136332        1.595374       -2.967088
  H  1.0            1.868251        2.759364       -2.332043
  O  8.0           -2.007662       -2.263148        1.128649
  H  1.0           -1.068279       -2.211393        1.204535
  H  1.0           -2.224741       -3.179620        1.066721
  O  8.0            1.581954        2.160038        2.773987
  H  1.0            2.386079        1.673513        2.860908
  H  1.0            1.787154        2.937039        2.278972
 $end
