 $contrl inttyp=rotaxis $end
 $SYSTEM MWORDS=1600 $END
 $SYSTEM MEMDDI=0 $END
 $CONTRL nprint=-5 SCFTYP=RHF MULT=1 ICHARG=0 ISPHER=1 $END
 $CONTRL RUNTYP=ENERGY $END
 $SCF DIRSCF=.T. FDIFF=.F. $END
 $BASIS GBASIS=N31 NGAUSS=6 NDFUNC=1 DIFFSP=.t. $END
 $DATA
 0040w_631++Gdp.inp basis 631++Gdp
 C1 
  O  8.0           -2.129363        0.493970       -3.756656
  H  1.0           -2.563066        1.326673       -3.853530
  H  1.0           -2.778518       -0.170896       -3.922271
  O  8.0            0.213948       -1.091444        2.184597
  H  1.0            0.942647       -1.590280        2.517822
  H  1.0            0.350632       -0.999291        1.255241
  O  8.0            0.378185        1.069244        0.779314
  H  1.0            1.028519        1.198981        0.107665
  H  1.0            0.745726        1.404917        1.581259
  O  8.0           -3.648398        2.436443       -0.775268
  H  1.0           -2.892279        1.873828       -0.724016
  H  1.0           -3.345820        3.268369       -1.102718
  O  8.0            3.904899       -2.732105        0.340448
  H  1.0            3.472462       -3.290806       -0.285436
  H  1.0            3.464387       -1.897925        0.309274
  O  8.0           -4.050041        0.003665       -1.841815
  H  1.0           -4.406045        0.867947       -1.710835
  H  1.0           -3.125111        0.111724       -1.995781
  O  8.0           -2.825439       -2.047178       -3.291811
  H  1.0           -2.561218       -2.780994       -2.760228
  H  1.0           -3.539542       -1.627521       -2.839237
  O  8.0           -2.782319       -0.365813        2.414016
  H  1.0           -3.223752       -0.044677        1.644025
  H  1.0           -3.452516       -0.561428        3.049193
  O  8.0           -1.579380        4.562271        0.048464
  H  1.0           -2.163153        3.887956        0.357311
  H  1.0           -1.416439        4.383099       -0.863800
  O  8.0            2.072688       -0.024980        1.260723
  H  1.0            2.076033       -0.521157        0.457806
  H  1.0            2.963461        0.245705        1.416062
  O  8.0           -0.225802       -3.125190        2.935779
  H  1.0            0.030066       -3.995720        2.675804
  H  1.0           -1.088643       -3.196899        3.311600
  O  8.0           -0.396045       -0.886925       -0.568963
  H  1.0           -0.688633       -1.228492       -1.398784
  H  1.0            0.476297       -0.553296       -0.705307
  O  8.0            1.538722        2.610604       -2.809872
  H  1.0            1.143728        3.332139       -3.272739
  H  1.0            1.984897        2.085955       -3.455278
  O  8.0           -1.947778       -1.983428        1.635761
  H  1.0           -1.106140       -2.322433        1.375761
  H  1.0           -2.349788       -1.629966        0.858373
  O  8.0            1.125493        2.362466        3.376986
  H  1.0            0.495678        2.510425        4.064240
  H  1.0            1.559406        3.186710        3.224608
  O  8.0            2.490593        2.187329        1.080344
  H  1.0            2.698908        2.136335        1.999519
  H  1.0            3.283987        2.440234        0.635998
  O  8.0            3.208466       -2.193736        2.837869
  H  1.0            2.896717       -1.564427        2.207265
  H  1.0            2.461794       -2.708531        3.099302
  O  8.0            2.514894        0.439400        3.328959
  H  1.0            1.586674        0.450250        3.158175
  H  1.0            2.721361        1.254446        3.757852
  O  8.0            2.591494       -1.575199       -2.897976
  H  1.0            2.402741       -2.297991       -3.474883
  H  1.0            3.514502       -1.396022       -2.980616
  O  8.0           -2.646613        1.504394        3.257691
  H  1.0           -2.478826        2.430119        3.333584
  H  1.0           -3.531520        1.414067        2.942003
  O  8.0           -1.468506        2.270491        1.264375
  H  1.0           -1.135805        1.810544        2.018455
  H  1.0           -2.403814        2.143770        1.260186
  O  8.0            4.649301        0.390717        0.298950
  H  1.0            4.678958        1.068760        0.954889
  H  1.0            4.718299       -0.432170        0.756087
  O  8.0           -2.587812       -3.754497        1.001405
  H  1.0           -2.150877       -3.938419        1.817578
  H  1.0           -3.377221       -3.283848        1.216349
  O  8.0            2.538402        3.623849       -1.299100
  H  1.0            2.159911        2.833934       -0.947451
  H  1.0            1.821153        4.154831       -1.606492
  O  8.0           -0.035567       -4.435482        0.544145
  H  1.0           -0.939277       -4.690314        0.447984
  H  1.0            0.016475       -3.524357        0.303269
  O  8.0            3.370278        1.518309       -1.960888
  H  1.0            3.904879        2.246079       -1.686240
  H  1.0            3.668674        1.272198       -2.821857
  O  8.0           -1.692319        0.579556        0.261628
  H  1.0           -2.313999        0.035263       -0.194594
  H  1.0           -1.296833        0.040098        0.927551
  O  8.0           -1.078424       -1.134806       -3.355376
  H  1.0           -0.791927       -2.023247       -3.215838
  H  1.0           -0.347209       -0.669510       -3.729142
  O  8.0           -3.500873       -1.769956       -0.867582
  H  1.0           -3.654474       -2.674199       -0.644806
  H  1.0           -2.589939       -1.699918       -1.104590
  O  8.0            2.151318       -3.087311        1.186795
  H  1.0            1.587060       -3.789033        1.469774
  H  1.0            1.597558       -2.442902        0.775741
  O  8.0            1.943441        0.242057       -2.459076
  H  1.0            1.301395        0.260385       -3.150683
  H  1.0            1.573546        0.718127       -1.732844
  O  8.0            1.277747        4.621768        0.239720
  H  1.0            1.408629        3.768315        0.620988
  H  1.0            0.348038        4.784227        0.250949
  O  8.0           -0.374188        3.626383        2.182967
  H  1.0           -1.197543        4.086948        2.212035
  H  1.0            0.303495        4.283102        2.164384
  O  8.0            4.114479       -0.787682       -1.195449
  H  1.0            4.522674       -0.051433       -1.622289
  H  1.0            3.185873       -0.618689       -1.192122
  O  8.0           -1.013002        1.426309       -2.414529
  H  1.0           -0.076071        1.513905       -2.487773
  H  1.0           -1.176875        0.583128       -2.023288
  O  8.0           -1.728137        3.037107       -3.315407
  H  1.0           -0.811017        3.164117       -3.498809
  H  1.0           -1.849113        3.220234       -2.397416
  O  8.0            1.117941       -3.207630       -1.667936
  H  1.0            1.732546       -3.661909       -2.221804
  H  1.0            0.980958       -2.357654       -2.054788
  O  8.0            0.126163        3.074508       -0.717510
  H  1.0            0.041415        3.294796       -1.631385
  H  1.0           -0.508262        2.398186       -0.541520
  O  8.0           -1.111351       -4.111198       -1.435009
  H  1.0           -0.290581       -4.576935       -1.452402
  H  1.0           -0.902467       -3.191717       -1.477441
  O  8.0            0.580051       -0.602777        4.495905
  H  1.0            0.758200       -1.529638        4.487601
  H  1.0           -0.347450       -0.503501        4.351808
 $end
