 $contrl inttyp=rotaxis $end
 $SYSTEM MWORDS=1600 $END
 $SYSTEM MEMDDI=0 $END
 $CONTRL nprint=-5 SCFTYP=RHF MULT=1 ICHARG=0 ISPHER=1 $END
 $CONTRL RUNTYP=ENERGY $END
 $SCF DIRSCF=.T. FDIFF=.F. $END
 $BASIS GBASIS=N31 NGAUSS=6 NDFUNC=1 DIFFSP=.t. $END
 $DATA
 0070w_631++Gdp.inp basis 631++Gdp
 C1 
  O  8.0           -0.782185        2.072537       -6.545100
  H  1.0           -0.207027        2.508823       -5.937049
  H  1.0           -1.359956        1.531205       -6.031272
  O  8.0           -1.475651        3.575647       -4.863479
  H  1.0           -2.148269        2.913483       -4.861847
  H  1.0           -1.912796        4.406137       -4.963823
  O  8.0            2.023275       -5.094539       -1.289459
  H  1.0            2.367080       -5.594995       -2.012107
  H  1.0            1.290683       -5.581080       -0.946727
  O  8.0            0.663415        2.668044       -3.503080
  H  1.0            1.539915        2.353967       -3.657941
  H  1.0            0.510634        3.362805       -4.123437
  O  8.0           -0.532630       -5.878453       -0.052606
  H  1.0           -0.652774       -4.950429        0.070744
  H  1.0           -1.392164       -6.249822       -0.171619
  O  8.0            2.020105       -2.623330        5.608932
  H  1.0            1.397038       -2.465581        6.300148
  H  1.0            2.081892       -3.559734        5.507896
  O  8.0            3.731476       -3.406661       -1.271092
  H  1.0            4.597135       -3.780662       -1.311532
  H  1.0            3.472255       -3.420146       -0.363623
  O  8.0           -0.898434        0.724844       -2.153658
  H  1.0           -1.184691        1.052091       -2.991420
  H  1.0           -0.886172        1.461969       -1.564273
  O  8.0           -5.446741       -1.593353       -3.221925
  H  1.0           -6.111220       -0.937070       -3.085401
  H  1.0           -4.624981       -1.135467       -3.298925
  O  8.0           -2.990630       -3.666686        0.184661
  H  1.0           -3.228713       -2.925220        0.717975
  H  1.0           -2.268796       -3.390524       -0.357159
  O  8.0            1.755683        5.025490        3.993591
  H  1.0            1.081129        5.661461        3.816403
  H  1.0            1.354116        4.174963        3.914690
  O  8.0            0.696097        3.030823        0.329292
  H  1.0            0.795709        3.879675       -0.071216
  H  1.0            1.540057        2.795896        0.680602
  O  8.0            5.032979       -1.215368        2.501635
  H  1.0            5.905578       -0.959352        2.754431
  H  1.0            4.469581       -0.482131        2.690909
  O  8.0           -2.283079       -2.170653        6.080966
  H  1.0           -1.779048       -1.490720        6.498725
  H  1.0           -3.128285       -1.799613        5.883904
  O  8.0           -4.037794        1.219501        1.601452
  H  1.0           -3.236302        1.206434        2.099768
  H  1.0           -4.243478        0.321777        1.394901
  O  8.0           -2.698780       -2.534397       -2.222601
  H  1.0           -1.783759       -2.482603       -1.996921
  H  1.0           -2.868790       -1.831523       -2.829184
  O  8.0           -1.702698        3.749874       -2.904106
  H  1.0           -1.209859        4.554236       -2.872652
  H  1.0           -1.093621        3.051365       -2.725252
  O  8.0           -1.740766       -1.306704        2.418569
  H  1.0           -2.096353       -0.969198        3.225121
  H  1.0           -0.994689       -1.835862        2.651458
  O  8.0           -0.510142        5.749774        1.237333
  H  1.0           -1.009455        6.418592        1.678068
  H  1.0           -0.412387        5.037171        1.848495
  O  8.0            2.656110        1.875848        5.774338
  H  1.0            3.352879        1.252209        5.902659
  H  1.0            3.065136        2.700429        5.565428
  O  8.0           -3.191077       -1.042798       -0.691180
  H  1.0           -4.091861       -1.317683       -0.753674
  H  1.0           -3.201037       -0.107613       -0.563870
  O  8.0           -5.024438        1.313148        3.229823
  H  1.0           -4.821113        1.480435        4.136218
  H  1.0           -5.152167        0.381560        3.147918
  O  8.0            0.188549        1.092220        0.567533
  H  1.0            0.353036        1.313342        1.470267
  H  1.0            0.697435        0.319627        0.380414
  O  8.0            5.005360       -3.550060        1.654142
  H  1.0            5.403552       -3.495260        2.508144
  H  1.0            5.639362       -3.220323        1.037544
  O  8.0           -1.019719        1.111806        6.393081
  H  1.0           -1.642452        0.466955        6.688460
  H  1.0           -0.904330        0.973077        5.466627
  O  8.0            2.479673       -2.306484       -2.442383
  H  1.0            1.567431       -2.483413       -2.607878
  H  1.0            2.738903       -1.629975       -3.047375
  O  8.0           -2.315860       -3.347477        4.114911
  H  1.0           -2.088032       -3.773818        3.304229
  H  1.0           -1.627642       -2.728172        4.298476
  O  8.0           -5.925406       -3.540808       -0.242616
  H  1.0           -5.555388       -3.441463        0.619994
  H  1.0           -5.235877       -3.868815       -0.797448
  O  8.0           -0.230937       -0.478074       -3.976361
  H  1.0            0.425459        0.156633       -3.737260
  H  1.0           -0.251615       -1.120488       -3.285163
  O  8.0            6.436737        1.186742       -2.050989
  H  1.0            6.269589        1.739291       -1.304243
  H  1.0            6.098856        1.641433       -2.805953
  O  8.0           -3.949897        0.201277       -4.607374
  H  1.0           -3.203742        0.776730       -4.552736
  H  1.0           -4.715735        0.752168       -4.637201
  O  8.0            3.368072        1.189415       -4.952086
  H  1.0            4.102530        0.693894       -5.277522
  H  1.0            2.602639        0.650306       -5.071885
  O  8.0            3.272365        2.558969        3.242346
  H  1.0            2.448438        2.127126        3.402141
  H  1.0            3.165975        3.456066        3.515798
  O  8.0            0.740685       -1.128930       -5.755190
  H  1.0           -0.144639       -0.847080       -5.921439
  H  1.0            0.686636       -2.009891       -5.420728
  O  8.0            2.263119        1.457826       -1.306050
  H  1.0            1.514763        1.663617       -1.843164
  H  1.0            2.439118        0.538414       -1.426815
  O  8.0           -3.456159        0.147763        4.650046
  H  1.0           -3.847130       -0.615326        4.255438
  H  1.0           -2.596878       -0.109076        4.944235
  O  8.0            5.596706        3.676192       -0.976630
  H  1.0            5.151658        4.338499       -1.480772
  H  1.0            5.631336        3.989946       -0.087115
  O  8.0            2.405806       -0.648155        3.560785
  H  1.0            2.704091       -1.196899        4.268446
  H  1.0            1.963049       -1.212893        2.947665
  O  8.0            4.622228        3.524423        2.207451
  H  1.0            4.404345        3.351125        1.305579
  H  1.0            4.392624        4.424686        2.373844
  O  8.0           -4.407744        2.651054       -3.081249
  H  1.0           -3.658822        2.077157       -3.106451
  H  1.0           -4.730264        2.637389       -2.194304
  O  8.0           -0.279014        3.174568        5.055940
  H  1.0            0.337510        2.480040        5.224489
  H  1.0           -0.208977        3.780260        5.776432
  O  8.0            1.960315        6.621585        0.088985
  H  1.0            1.395903        5.868079        0.021558
  H  1.0            2.836145        6.293894        0.217121
  O  8.0            2.057544        3.509358       -5.456223
  H  1.0            1.733134        2.849404       -6.047913
  H  1.0            2.880324        3.191594       -5.120161
  O  8.0           -6.824143       -0.424296       -1.036986
  H  1.0           -6.040887       -0.945656       -1.111636
  H  1.0           -6.586924        0.354928       -0.560107
  O  8.0            0.380671       -5.258016       -3.401090
  H  1.0            0.843283       -4.553760       -2.975776
  H  1.0            0.606378       -6.049203       -2.938534
  O  8.0           -1.558950        2.089871        3.599175
  H  1.0           -2.001740        1.256685        3.623995
  H  1.0           -0.634315        1.904605        3.559122
  O  8.0            1.832908       -6.509464        1.212672
  H  1.0            2.730715       -6.218512        1.225624
  H  1.0            1.296078       -5.733140        1.216117
  O  8.0           -2.661781        3.737519        1.541432
  H  1.0           -2.049728        3.966579        2.222461
  H  1.0           -3.190470        4.503211        1.383061
  O  8.0            3.863460       -2.816009       -4.102301
  H  1.0            4.770115       -2.635628       -4.292873
  H  1.0            3.352785       -2.339060       -4.736816
  O  8.0           -1.821200        4.790349        4.005425
  H  1.0           -1.114286        5.061946        4.568795
  H  1.0           -2.512706        4.480328        4.568083
  O  8.0            3.331710       -4.167577        3.325204
  H  1.0            3.809143       -4.905459        2.981016
  H  1.0            3.284120       -3.528239        2.632484
  O  8.0            0.112380       -3.829572       -5.805827
  H  1.0           -0.712070       -3.391379       -5.944202
  H  1.0            0.204494       -3.946261       -4.873746
  O  8.0           -5.312783        1.667748        0.140515
  H  1.0           -4.771482        1.140813       -0.425357
  H  1.0           -4.863147        2.489252        0.258141
  O  8.0           -5.408428       -2.167517        2.375743
  H  1.0           -6.044192       -1.700947        2.894389
  H  1.0           -5.040685       -1.543027        1.771048
  O  8.0            2.987126       -1.294484       -0.128962
  H  1.0            3.685291       -1.471840       -0.738870
  H  1.0            2.242966       -1.800378       -0.413876
  O  8.0           -0.150467       -0.926054        4.413176
  H  1.0            0.425041       -1.623116        4.141563
  H  1.0            0.088604       -0.164849        3.908903
  O  8.0            0.926219       -4.862750        3.363041
  H  1.0            0.300356       -5.525409        3.117978
  H  1.0            1.732939       -5.311245        3.560358
  O  8.0            0.576353        5.447431       -2.666467
  H  1.0            0.859181        5.960818       -3.406278
  H  1.0            0.429151        6.052230       -1.956940
  O  8.0            5.392118       -0.094318        0.586473
  H  1.0            5.124821        0.444209       -0.141139
  H  1.0            5.590676       -0.947176        0.234213
  O  8.0            5.907418        1.958453        3.082405
  H  1.0            5.214764        2.349760        3.590329
  H  1.0            5.675199        1.051815        2.960094
  O  8.0            3.490218        4.275855       -0.405104
  H  1.0            3.022068        4.336397        0.412238
  H  1.0            3.006065        4.787235       -1.033566
  O  8.0           -3.310140        4.815894       -2.253904
  H  1.0           -4.174158        4.831656       -2.633513
  H  1.0           -3.211795        5.620183       -1.769832
  O  8.0            4.283510        2.289131       -3.162753
  H  1.0            3.412279        2.651178       -3.135211
  H  1.0            4.186316        1.351256       -3.205437
  O  8.0           -0.474942       -0.704465       -0.842763
  H  1.0           -0.808973       -0.992188       -0.008187
  H  1.0           -0.233371       -1.481633       -1.320812
  O  8.0           -1.707615       -4.027392       -3.738596
  H  1.0           -2.618804       -3.781307       -3.745907
  H  1.0           -1.210080       -3.225366       -3.729012
  O  8.0            0.996301        0.420993        6.050104
  H  1.0            1.479598        0.342903        5.243131
  H  1.0            1.492058       -0.038614        6.708788
  O  8.0            4.412101       -0.288599        4.656231
  H  1.0            4.981856        0.461648        4.714420
  H  1.0            4.965881       -1.052481        4.682504
  O  8.0           -3.605681       -5.027494        1.491424
  H  1.0           -4.543897       -5.002005        1.391533
  H  1.0           -3.336595       -5.912062        1.301662
  O  8.0            2.687660        0.675887        1.489103
  H  1.0            2.917485        1.586329        1.584780
  H  1.0            3.392800        0.266623        1.013543
  O  8.0           -3.453625       -2.152124       -5.474724
  H  1.0           -2.867413       -1.433421       -5.299513
  H  1.0           -4.277273       -1.935817       -5.067670
 $end
